30	3	3
7	7	9	55	116	49	
0	0	0	0	5	7	4	3	3	8	29	2	3	4	5	6	7	8	9	10	11	12	13	14	15	16	17	18	19	20	21	22	23	24	25	26	27	28	29	30
2	2	1	3	3	9	4	2	5	3	1	10
3	2	2	1	7	2	5	9	2	7	1	30
3	1	2	2	3	8	10	10	2	10	1	27
2	1	2	2	1	10	6	1	5	7	1	9
2	2	1	2	4	10	3	7	2	6	2	19	27
3	2	1	3	5	5	4	9	7	9	1	30
3	2	2	2	1	3	10	6	1	2	1	30
2	2	2	2	3	4	9	2	3	1	1	30
3	2	1	2	2	4	10	8	4	5	1	30
4	3	2	2	5	7	4	7	4	6	1	30
4	4	2	2	3	9	10	7	7	7	1	17
2	2	2	3	5	8	10	5	3	1	1	30
4	2	2	2	7	6	4	5	8	7	2	28	25
3	2	1	2	5	9	1	5	6	4	1	30
2	3	1	2	9	10	1	2	7	4	1	22
2	3	2	3	7	10	2	7	7	9	1	30
4	2	1	1	4	1	6	3	6	9	1	30
3	3	1	3	3	2	4	7	7	2	1	24
4	3	2	3	3	1	10	3	5	6	1	30
2	1	1	3	7	4	6	7	5	3	1	30
2	1	1	3	1	2	2	3	9	8	1	30
3	3	1	1	1	2	9	6	5	5	1	30
3	3	1	2	5	7	7	9	3	3	1	25
2	3	1	1	10	6	4	9	9	9	1	30
4	3	2	3	4	5	2	10	1	7	1	30
2	3	2	3	2	2	8	3	4	7	1	30
1	4	2	2	1	4	9	10	10	3	1	30
2	5	2	2	4	4	10	10	2	3	1	30
0	0	0	0	2	1	9	5	10	7	0
